&CONTROL
    calculation= 'scf'
    verbosity= 'high'
    restart_mode= 'from_scratch'
    prefix= 'Fe_crack_110_010'
    outdir= './out'
    pseudo_dir= './pseudo'
    tprnfor=.true.
    tstress=.true.
    disk_io='none'
    wf_collect= .false.
/

&SYSTEM
    ibrav= 0
    nat= 128
    ntyp= 1
    ecutwfc= 90
    ecutrho= 1080
    occupations= 'smearing'
    smearing= 'marzari-vanderbilt'
    degauss= 0.01
    nspin= 2
    nosym= .true.
    starting_magnetization(1)= 0.32
/

&ELECTRONS
electron_maxstep= 800
conv_thr= 1e-7
mixing_beta= 0.05
/

ATOMIC_SPECIES
Fe 55.845 Fe.pbe-spn-rrkjus_psl.0.2.1.UPF

K_POINTS automatic
3 2 9 1 1 1

CELL_PARAMETERS angstrom
 15.90061000   0.00000000   0.00000000 
  0.00000000  28.74548000   0.00000000 
  0.00000000   0.00000000   4.00843237 

ATOMIC_POSITIONS angstrom
Fe   0.28087724   2.76533358   1.90725379
Fe   0.56875923   1.38393486   0.00975351
Fe   0.63050737  -0.03042830   1.93690601
Fe   2.56191374   1.63686564   1.97951804
Fe   4.62087614   2.22820374  -0.03781938
Fe   4.78906374   0.82399994   2.04308135
Fe   2.72402571   0.35235474   0.10816364
Fe   2.39262770   3.23020901  -0.02146229
Fe   4.48756218   3.67954447   1.89544506
Fe   6.69831404   2.61518926   1.91168030
Fe   6.89823245   1.15990784   0.02008817
Fe   8.81006276   1.46545854   2.03105347
Fe   8.62607640   3.01116202   3.92811610
Fe   0.01444898   4.15786950   0.08336123
Fe   2.28129567   4.62524726   2.03497420
Fe   4.07264067   4.94193788  -0.01619953
Fe   6.38805203   5.73516092   1.97148495
Fe   6.48283656   4.21339410   0.02673704
Fe   8.06859158   6.66687315   3.92188482
Fe   8.42481809   4.74643228   1.92401891
Fe  -0.05362050  10.95097464   2.02596248
Fe   4.03224856  10.17382579   1.94915402
Fe   2.25919268  10.48289853  -0.02238143
Fe   6.51313434  10.91728233   2.03213281
Fe   6.31370949   9.19173519   0.05451002
Fe   8.12210398   8.50257770   1.84642743
Fe   8.47580575  10.34124537   3.93823681
Fe   0.77121007  15.02512439  -0.02745125
Fe   0.44206257  13.76276184   2.13099323
Fe   0.35095477  12.27366434   0.01318069
Fe   4.49033268  11.45646036  -0.03316337
Fe   2.42208353  11.89763203   1.97619146
Fe   2.70341018  14.73662498   2.02829885
Fe   4.79835280  14.36763154   0.02460038
Fe   4.62340339  12.93786030   1.98914987
Fe   2.61231428  13.24968894  -0.03247365
Fe   6.77055689  13.88970382   1.96024894
Fe   6.69842225  12.41970209   4.05000271
Fe   8.67867057  12.06723085   1.94207458
Fe   8.86914005  13.54752270   3.99962486
Fe  10.84421123   1.81477710   3.99761981
Fe  12.73379218   1.94113631   2.07511577
Fe  10.60274843   3.43379094   1.99701083
Fe  12.74024975   3.64326964   4.04143180
Fe  14.77319967   2.10191274   4.04225851
Fe  10.41104174   5.14022100   3.96550900
Fe  12.40406070   5.16579497   2.04487494
Fe  12.47920464   6.83142687   3.93825323
Fe  10.23128043   6.67533481   2.00493604
Fe  14.52859127   5.29525068   4.02614086
Fe  14.63116544   3.80258199   2.00969446
Fe  14.44618575   6.70083162   2.03512139
Fe  10.11865242   8.29745171   4.00422788
Fe  12.37207215   8.18960764   2.00608663
Fe  12.45592435   9.89047377   3.97077469
Fe  10.37931329   9.89364017   1.97466503
Fe  14.61433621   8.27027605   3.99131065
Fe  14.72404005  11.39049264   3.96039494
Fe  14.48981992   9.81124683   1.92329137
Fe  12.58676136  11.52079958   1.99030636
Fe  10.59791959  11.74037828   3.98330346
Fe  12.64095847  13.07062760   4.04629341
Fe  10.72596405  13.37179005   2.03824094
Fe  14.74374292  12.99076996   1.99326920
Fe  15.08934442  26.74904469   1.97912815
Fe  14.84787547  28.15757353   0.06934732
Fe  14.81697513  29.47775390   1.97204105
Fe  12.82680380  27.61574329   1.95581342
Fe  10.73413947  27.25880559   0.04937177
Fe  10.55999201  28.78275052   1.96859743
Fe  12.67555481  29.15313221  -0.06995479
Fe  13.06866802  26.22107780  -0.02140122
Fe  11.01006947  25.84966693   1.95720268
Fe   8.71471931  26.71908793   2.06390549
Fe   8.45049827  28.33950643  -0.11567803
Fe   6.54719696  27.90055493   1.98408209
Fe   6.76434181  26.44828510   4.01637422
Fe  15.35310866  25.36962033   0.01073378
Fe  13.23558505  24.85132196   2.00951471
Fe  11.36853459  24.41089532   0.07184081
Fe   9.15197898  23.52681601   2.01802270
Fe   8.93634677  25.26718142   0.09136467
Fe   7.36996313  22.79779195   3.93474706
Fe   6.95841600  24.81021958   2.00842343
Fe  15.41252201  18.51917049   2.04486536
Fe  11.40734966  19.31289798   2.05163404
Fe  13.10529844  18.96515767  -0.00146906
Fe   8.90326766  18.67527259   2.05717955
Fe   9.11461671  20.19778398  -0.03468414
Fe   7.31006754  20.96596653   1.81977445
Fe   6.99485749  19.12862807   3.99541931
Fe  14.70179111  14.38929403  -0.11157925
Fe  14.87820216  15.73489119   2.01679303
Fe  15.10188129  17.23085217   0.01154079
Fe  10.98125346  18.11129948   0.02360702
Fe  13.11702705  17.56835862   1.94288854
Fe  12.71031168  14.77889103   1.96609640
Fe  10.62626714  15.16111021  -0.07094255
Fe  10.69072267  16.51816941   2.08069003
Fe  12.89992930  16.06414072  -0.05175068
Fe   8.55426559  15.49189315   1.98915567
Fe   8.79828888  17.02591004   4.00524113
Fe   6.74803843  17.44454266   1.96526574
Fe   6.53436667  15.86203242   3.90290753
Fe   4.58572471  27.71793474   4.02881790
Fe   2.59348837  27.48908920   1.93604888
Fe   4.87403534  26.03330252   2.01601603
Fe   2.81999257  25.85704915   4.05589366
Fe   0.68187817  27.29875477   3.97771058
Fe   5.00032628  24.30361895   3.98196715
Fe   2.98563024  24.25380733   2.00442600
Fe   3.03818786  22.71181059   3.96795656
Fe   5.23841723  22.76186625   1.93379492
Fe   0.83463542  24.15345023   4.03603850
Fe   0.81558543  25.82112335   2.00658825
Fe   0.93390496  22.57613986   2.04386927
Fe   5.15151279  20.98478390   4.05905069
Fe   3.05238201  21.11787591   1.90502062
Fe   3.00253567  19.57346678   3.96754838
Fe   5.02625291  19.45042261   2.00912487
Fe   0.89795080  21.11191413   4.03876845
Fe   0.77648569  18.05839067   3.93971971
Fe   0.86225266  19.67580386   1.94579518
Fe   2.86270156  17.95850837   1.95177024
Fe   4.75634892  17.82502944   3.94866573
Fe   2.72173328  16.31920211   4.07333586
Fe   4.61568256  16.11022244   1.91297287
Fe   0.66851744  16.50890147   1.93106360
