&CONTROL
    calculation= 'scf'
    verbosity= 'high'
    restart_mode= 'from_scratch'
    prefix= 'Fe_crack_110_010'
    outdir= './out'
    pseudo_dir= './pseudo'
    tprnfor=.true.
    tstress=.true.
    disk_io='none'
    wf_collect= .false.
/

&SYSTEM
    ibrav= 0
    nat= 128
    ntyp= 1
    ecutwfc= 90
    ecutrho= 1080
    occupations= 'smearing'
    smearing= 'marzari-vanderbilt'
    degauss= 0.01
    nspin= 2
    nosym= .true.
    starting_magnetization(1)= 0.32
/

&ELECTRONS
electron_maxstep= 800
conv_thr= 1e-7
mixing_beta= 0.05
/

ATOMIC_SPECIES
Fe 55.845 Fe.pbe-spn-rrkjus_psl.0.2.1.UPF

K_POINTS automatic
3 1 12 1 1 1

CELL_PARAMETERS angstrom
 16.60507062   0.00000000   0.00000000 
  0.00000000  39.29104124   0.00000000 
  0.00000000   0.00000000   2.83441900 

ATOMIC_POSITIONS angstrom
Fe   0.54128485  -0.12229133   1.46282379
Fe   0.49390785   2.00677344  -0.06970982
Fe   4.77567412   0.76452244   1.48786874
Fe   2.71050146   0.39072554  -0.03212315
Fe   6.74576872   1.21615202  -0.07445819
Fe   8.88107666   1.58682303   1.49074496
Fe   0.30405554   3.99599422   1.44210588
Fe   0.01104728   5.88349338  -0.02902452
Fe   2.35073032   4.26746434   0.02570769
Fe   2.57240531   2.30383853   1.38392030
Fe   4.52773316   2.68346067   0.03137972
Fe   4.32225022   4.73390236   1.43247475
Fe   6.55129149   3.33408692   1.45942694
Fe   8.78169004   3.69288000   0.10773679
Fe   6.37800329   5.42967125  -0.00669962
Fe   1.95244381   6.28806587   1.43409996
Fe   3.96351692   6.65417208  -0.08138211
Fe   8.37563414   8.89530436   0.00817900
Fe   6.55218474   7.57289739   1.36152530
Fe   8.52594570   6.07173998   1.28933379
Fe   4.02313315  13.41076260   1.40781945
Fe   2.01389460  13.69745163  -0.05171052
Fe   6.54591296  12.51910361  -0.06414261
Fe   8.42825868  11.34481935   1.41770262
Fe  -0.04699825  14.21529788   1.36462092
Fe   0.19657573  16.07008567  -0.02822129
Fe   2.31846284  15.93593504   1.39306581
Fe   4.33128827  15.33635952   0.08450051
Fe   4.63117926  17.43904148   1.37533888
Fe   8.60760990  14.05800757  -0.00603267
Fe   6.36145895  14.76602552   1.44014990
Fe   6.64991282  16.90665802   0.01893054
Fe   8.59919718  16.38403040   1.42905587
Fe   0.50982269  18.05220261   1.41008835
Fe   0.63054233  20.14369539  -0.01077887
Fe   2.61037960  17.75216450   0.00213676
Fe   2.71407749  19.79561153   1.40335432
Fe   4.72123006  19.38029880   0.04719211
Fe   6.79602305  18.99867712   1.46077519
Fe   8.79551068  18.44341388  -0.02709534
Fe  10.81185568   2.10417177  -0.00416711
Fe  12.68403888   4.53246385   0.08390661
Fe  10.57044471   4.29509155   1.35323835
Fe  12.81953747   2.24949532   1.44294575
Fe  14.82062918   4.61478838   1.46935426
Fe  14.84610955   2.51708678   0.04016385
Fe  10.43795635   6.60858784  -0.00862811
Fe  12.68396845   6.73483891   1.38676639
Fe  10.40316957   8.91616801   1.36979387
Fe  12.57589036   8.91423526   0.00086143
Fe  14.62823935   6.80197075   0.02083414
Fe  14.52150402   9.02741449   1.37925684
Fe  12.63400998  11.23661992   1.40584244
Fe  10.38315419  11.15283938   0.02711740
Fe  10.53826945  13.47108616   1.38214241
Fe  12.51375863  13.34614490  -0.00547684
Fe  14.56358280  11.09754286  -0.04536542
Fe  14.65215348  13.41508993   1.45678994
Fe  12.78440806  15.55081070   1.40150024
Fe  10.73799109  15.75114117   0.03307390
Fe  14.72819182  15.48560788   0.04246853
Fe  14.79265111  17.62576174   1.30473511
Fe  12.85968311  17.77968157  -0.02791293
Fe  10.84246847  18.03247689   1.44154227
Fe  14.88641257  39.76956947   1.43415103
Fe  15.14126091  37.71053919   0.07836704
Fe  10.74471889  39.14459330   1.46725796
Fe  12.84365510  39.47303340   0.01925104
Fe   8.63390401  38.65344972  -0.07501456
Fe   6.68459580  38.18566216   1.49242900
Fe  15.32151255  35.85373101   1.43973531
Fe  15.59680816  33.77645090  -0.00479092
Fe  13.22055899  35.47700005   0.00361401
Fe  13.04417584  37.39411997   1.44012592
Fe  10.96553865  37.00306203   0.01199792
Fe  11.13257971  35.05249427   1.37772252
Fe   8.99095667  36.47095179   1.39927458
Fe   6.95951897  35.90603792   0.01121535
Fe   9.12034691  34.39911775   0.01104571
Fe  13.58658015  33.52861488   1.40343689
Fe  11.60975775  33.04095811  -0.06147158
Fe   7.14938927  30.88528084   0.01245315
Fe   9.06567180  32.15899787   1.40924045
Fe   7.03408912  33.69820348   1.41936561
Fe  11.52490624  26.41329499   1.42134628
Fe  13.57066028  25.99097535  -0.02482016
Fe   9.06850253  27.25460391  -0.02507440
Fe   7.19927292  28.52483748   1.43657697
Fe  15.56846995  25.58666086   1.40560242
Fe  15.29128161  23.54624313   0.00736064
Fe  13.29329569  24.00645062   1.50036969
Fe  11.19516118  24.40930682  -0.04361467
Fe  10.96007681  22.40491992   1.46834138
Fe   6.96490594  25.75559542  -0.09766362
Fe   9.11015441  25.07900752   1.44458633
Fe   8.92402949  22.90055963  -0.03894792
Fe   6.81937311  23.42423089   1.45106546
Fe  15.06033104  21.58496260   1.44626751
Fe  14.85443015  19.59192035   0.02548668
Fe  13.05667808  21.95988390  -0.01033136
Fe  12.82813292  19.96068156   1.37015707
Fe  10.78516995  20.42400066  -0.04101035
Fe   8.74419335  20.79269714   1.53560508
Fe   6.71407062  21.28084710  -0.01488036
Fe   4.69956696  37.74637852   0.02486215
Fe   2.84991456  35.17993932  -0.04080675
Fe   4.96847835  35.30916078   1.46028828
Fe   2.74078235  37.36280744   1.35846813
Fe   0.83472685  35.10462821   1.42275506
Fe   0.71206046  37.23641169  -0.01045216
Fe   5.07313099  33.06470495  -0.02594478
Fe   2.97616923  33.03618243   1.38922959
Fe   5.02321687  30.89565527   1.44428803
Fe   3.00397638  30.83642445   0.01834793
Fe   0.84170136  33.00219079  -0.05418093
Fe   0.89320101  30.74301603   1.45313180
Fe   3.08958533  28.61030087   1.41185139
Fe   5.07909479  28.61053140   0.09333870
Fe   5.08674312  26.29107939   1.41313420
Fe   2.96535684  26.43201651  -0.00563123
Fe   0.98384730  28.58638981  -0.02845675
Fe   0.98979919  26.48897455   1.31697698
Fe   2.90879467  24.20862056   1.37197979
Fe   4.92727157  23.94887336  -0.01515837
Fe   0.75400032  24.25953256  -0.02920625
Fe   0.62643884  22.12455631   1.43143951
Fe   2.75221976  22.00873453   0.00937460
Fe   4.70938200  21.76831814   1.41924756
